(set-logic HORN)
(declare-fun inv ((_ BitVec 64) (_ BitVec 64) (_ BitVec 64) (_ BitVec 64) ) Bool)
(assert (forall ((i (_ BitVec 64)) (t (_ BitVec 64)) (x (_ BitVec 64)) (y (_ BitVec 64))) 
       (=> ( and ( not ( = x y ) ) ( = i (_ bv0 64) ) ( = t y ) ) (inv i t x y))))
(assert (forall ((i (_ BitVec 64)) (t (_ BitVec 64)) (x (_ BitVec 64)) (y (_ BitVec 64)) (i! (_ BitVec 64)) (t! (_ BitVec 64)) (x! (_ BitVec 64)) (y! (_ BitVec 64))) 
       (=> (and (inv i t x y) ( or ( and ( bvugt x (_ bv0 64) ) ( = i! i ) ( = t! t ) ( = x! x ) ( = y! ( bvadd x y ) ) ) ( and ( bvule x (_ bv0 64) ) ( = i! i ) ( = t! t ) ( = x! x ) ( = y! y ) ) )) (inv i! t! x! y!))))
(assert (forall ((i (_ BitVec 64)) (t (_ BitVec 64)) (x (_ BitVec 64)) (y (_ BitVec 64))) 
       (=> (inv i t x y) ( bvuge y t ))))
(check-sat)
